c description: Tseitin formula on Random 4-regular graph of 56 vertices, with odd charge
c generator: CNFgen (0.9.2)
c copyright: (C) 2012-2022 Massimo Lauria <massimo.lauria@uniroma1.it>
c url: https://massimolauria.net/cnfgen
c command line: cnfgen tseitin 56
c
p cnf 112 448
1 2 3 -4 0
1 2 -3 4 0
1 -2 3 4 0
1 -2 -3 -4 0
-1 2 3 4 0
-1 2 -3 -4 0
-1 -2 3 -4 0
-1 -2 -3 4 0
5 6 7 -8 0
5 6 -7 8 0
5 -6 7 8 0
5 -6 -7 -8 0
-5 6 7 8 0
-5 6 -7 -8 0
-5 -6 7 -8 0
-5 -6 -7 8 0
9 10 11 12 0
9 10 -11 -12 0
9 -10 11 -12 0
9 -10 -11 12 0
-9 10 11 -12 0
-9 10 -11 12 0
-9 -10 11 12 0
-9 -10 -11 -12 0
13 14 15 -16 0
13 14 -15 16 0
13 -14 15 16 0
13 -14 -15 -16 0
-13 14 15 16 0
-13 14 -15 -16 0
-13 -14 15 -16 0
-13 -14 -15 16 0
17 18 19 -20 0
17 18 -19 20 0
17 -18 19 20 0
17 -18 -19 -20 0
-17 18 19 20 0
-17 18 -19 -20 0
-17 -18 19 -20 0
-17 -18 -19 20 0
21 22 23 -24 0
21 22 -23 24 0
21 -22 23 24 0
21 -22 -23 -24 0
-21 22 23 24 0
-21 22 -23 -24 0
-21 -22 23 -24 0
-21 -22 -23 24 0
5 9 25 26 0
5 9 -25 -26 0
5 -9 25 -26 0
5 -9 -25 26 0
-5 9 25 -26 0
-5 9 -25 26 0
-5 -9 25 26 0
-5 -9 -25 -26 0
1 27 28 29 0
1 27 -28 -29 0
1 -27 28 -29 0
1 -27 -28 29 0
-1 27 28 -29 0
-1 27 -28 29 0
-1 -27 28 29 0
-1 -27 -28 -29 0
30 31 32 33 0
30 31 -32 -33 0
30 -31 32 -33 0
30 -31 -32 33 0
-30 31 32 -33 0
-30 31 -32 33 0
-30 -31 32 33 0
-30 -31 -32 -33 0
27 34 35 36 0
27 34 -35 -36 0
27 -34 35 -36 0
27 -34 -35 36 0
-27 34 35 -36 0
-27 34 -35 36 0
-27 -34 35 36 0
-27 -34 -35 -36 0
13 37 38 -39 0
13 37 -38 39 0
13 -37 38 39 0
13 -37 -38 -39 0
-13 37 38 39 0
-13 37 -38 -39 0
-13 -37 38 -39 0
-13 -37 -38 39 0
40 41 42 43 0
40 41 -42 -43 0
40 -41 42 -43 0
40 -41 -42 43 0
-40 41 42 -43 0
-40 41 -42 43 0
-40 -41 42 43 0
-40 -41 -42 -43 0
44 45 46 47 0
44 45 -46 -47 0
44 -45 46 -47 0
44 -45 -46 47 0
-44 45 46 -47 0
-44 45 -46 47 0
-44 -45 46 47 0
-44 -45 -46 -47 0
48 49 50 -51 0
48 49 -50 51 0
48 -49 50 51 0
48 -49 -50 -51 0
-48 49 50 51 0
-48 49 -50 -51 0
-48 -49 50 -51 0
-48 -49 -50 51 0
10 44 52 53 0
10 44 -52 -53 0
10 -44 52 -53 0
10 -44 -52 53 0
-10 44 52 -53 0
-10 44 -52 53 0
-10 -44 52 53 0
-10 -44 -52 -53 0
6 54 55 56 0
6 54 -55 -56 0
6 -54 55 -56 0
6 -54 -55 56 0
-6 54 55 -56 0
-6 54 -55 56 0
-6 -54 55 56 0
-6 -54 -55 -56 0
30 45 57 -58 0
30 45 -57 58 0
30 -45 57 58 0
30 -45 -57 -58 0
-30 45 57 58 0
-30 45 -57 -58 0
-30 -45 57 -58 0
-30 -45 -57 58 0
21 59 60 61 0
21 59 -60 -61 0
21 -59 60 -61 0
21 -59 -60 61 0
-21 59 60 -61 0
-21 59 -60 61 0
-21 -59 60 61 0
-21 -59 -60 -61 0
14 62 63 64 0
14 62 -63 -64 0
14 -62 63 -64 0
14 -62 -63 64 0
-14 62 63 -64 0
-14 62 -63 64 0
-14 -62 63 64 0
-14 -62 -63 -64 0
25 52 57 -65 0
25 52 -57 65 0
25 -52 57 65 0
25 -52 -57 -65 0
-25 52 57 65 0
-25 52 -57 -65 0
-25 -52 57 -65 0
-25 -52 -57 65 0
46 66 67 -68 0
46 66 -67 68 0
46 -66 67 68 0
46 -66 -67 -68 0
-46 66 67 68 0
-46 66 -67 -68 0
-46 -66 67 -68 0
-46 -66 -67 68 0
47 48 69 -70 0
47 48 -69 70 0
47 -48 69 70 0
47 -48 -69 -70 0
-47 48 69 70 0
-47 48 -69 -70 0
-47 -48 69 -70 0
-47 -48 -69 70 0
31 37 71 -72 0
31 37 -71 72 0
31 -37 71 72 0
31 -37 -71 -72 0
-31 37 71 72 0
-31 37 -71 -72 0
-31 -37 71 -72 0
-31 -37 -71 72 0
17 40 73 74 0
17 40 -73 -74 0
17 -40 73 -74 0
17 -40 -73 74 0
-17 40 73 -74 0
-17 40 -73 74 0
-17 -40 73 74 0
-17 -40 -73 -74 0
15 62 75 -76 0
15 62 -75 76 0
15 -62 75 76 0
15 -62 -75 -76 0
-15 62 75 76 0
-15 62 -75 -76 0
-15 -62 75 -76 0
-15 -62 -75 76 0
26 54 77 -78 0
26 54 -77 78 0
26 -54 77 78 0
26 -54 -77 -78 0
-26 54 77 78 0
-26 54 -77 -78 0
-26 -54 77 -78 0
-26 -54 -77 78 0
22 79 80 81 0
22 79 -80 -81 0
22 -79 80 -81 0
22 -79 -80 81 0
-22 79 80 -81 0
-22 79 -80 81 0
-22 -79 80 81 0
-22 -79 -80 -81 0
18 73 79 82 0
18 73 -79 -82 0
18 -73 79 -82 0
18 -73 -79 82 0
-18 73 79 -82 0
-18 73 -79 82 0
-18 -73 79 82 0
-18 -73 -79 -82 0
34 77 83 -84 0
34 77 -83 84 0
34 -77 83 84 0
34 -77 -83 -84 0
-34 77 83 84 0
-34 77 -83 -84 0
-34 -77 83 -84 0
-34 -77 -83 84 0
59 71 85 86 0
59 71 -85 -86 0
59 -71 85 -86 0
59 -71 -85 86 0
-59 71 85 -86 0
-59 71 -85 86 0
-59 -71 85 86 0
-59 -71 -85 -86 0
2 58 69 -87 0
2 58 -69 87 0
2 -58 69 87 0
2 -58 -69 -87 0
-2 58 69 87 0
-2 58 -69 -87 0
-2 -58 69 -87 0
-2 -58 -69 87 0
55 88 89 -90 0
55 88 -89 90 0
55 -88 89 90 0
55 -88 -89 -90 0
-55 88 89 90 0
-55 88 -89 -90 0
-55 -88 89 -90 0
-55 -88 -89 90 0
41 75 91 -92 0
41 75 -91 92 0
41 -75 91 92 0
41 -75 -91 -92 0
-41 75 91 92 0
-41 75 -91 -92 0
-41 -75 91 -92 0
-41 -75 -91 92 0
28 42 93 94 0
28 42 -93 -94 0
28 -42 93 -94 0
28 -42 -93 94 0
-28 42 93 -94 0
-28 42 -93 94 0
-28 -42 93 94 0
-28 -42 -93 -94 0
19 76 95 -96 0
19 76 -95 96 0
19 -76 95 96 0
19 -76 -95 -96 0
-19 76 95 96 0
-19 76 -95 -96 0
-19 -76 95 -96 0
-19 -76 -95 96 0
49 60 97 98 0
49 60 -97 -98 0
49 -60 97 -98 0
49 -60 -97 98 0
-49 60 97 -98 0
-49 60 -97 98 0
-49 -60 97 98 0
-49 -60 -97 -98 0
38 66 87 -99 0
38 66 -87 99 0
38 -66 87 99 0
38 -66 -87 -99 0
-38 66 87 99 0
-38 66 -87 -99 0
-38 -66 87 -99 0
-38 -66 -87 99 0
7 39 63 100 0
7 39 -63 -100 0
7 -39 63 -100 0
7 -39 -63 100 0
-7 39 63 -100 0
-7 39 -63 100 0
-7 -39 63 100 0
-7 -39 -63 -100 0
67 72 91 -100 0
67 72 -91 100 0
67 -72 91 100 0
67 -72 -91 -100 0
-67 72 91 100 0
-67 72 -91 -100 0
-67 -72 91 -100 0
-67 -72 -91 100 0
80 85 97 -101 0
80 85 -97 101 0
80 -85 97 101 0
80 -85 -97 -101 0
-80 85 97 101 0
-80 85 -97 -101 0
-80 -85 97 -101 0
-80 -85 -97 101 0
11 64 101 102 0
11 64 -101 -102 0
11 -64 101 -102 0
11 -64 -101 102 0
-11 64 101 -102 0
-11 64 -101 102 0
-11 -64 101 102 0
-11 -64 -101 -102 0
20 23 50 93 0
20 23 -50 -93 0
20 -23 50 -93 0
20 -23 -50 93 0
-20 23 50 -93 0
-20 23 -50 93 0
-20 -23 50 93 0
-20 -23 -50 -93 0
32 53 56 61 0
32 53 -56 -61 0
32 -53 56 -61 0
32 -53 -56 61 0
-32 53 56 -61 0
-32 53 -56 61 0
-32 -53 56 61 0
-32 -53 -56 -61 0
3 12 35 -94 0
3 12 -35 94 0
3 -12 35 94 0
3 -12 -35 -94 0
-3 12 35 94 0
-3 12 -35 -94 0
-3 -12 35 -94 0
-3 -12 -35 94 0
65 83 88 -92 0
65 83 -88 92 0
65 -83 88 92 0
65 -83 -88 -92 0
-65 83 88 92 0
-65 83 -88 -92 0
-65 -83 88 -92 0
-65 -83 -88 92 0
68 81 89 98 0
68 81 -89 -98 0
68 -81 89 -98 0
68 -81 -89 98 0
-68 81 89 -98 0
-68 81 -89 98 0
-68 -81 89 98 0
-68 -81 -89 -98 0
8 86 99 -103 0
8 86 -99 103 0
8 -86 99 103 0
8 -86 -99 -103 0
-8 86 99 103 0
-8 86 -99 -103 0
-8 -86 99 -103 0
-8 -86 -99 103 0
16 82 84 104 0
16 82 -84 -104 0
16 -82 84 -104 0
16 -82 -84 104 0
-16 82 84 -104 0
-16 82 -84 104 0
-16 -82 84 104 0
-16 -82 -84 -104 0
105 106 107 -108 0
105 106 -107 108 0
105 -106 107 108 0
105 -106 -107 -108 0
-105 106 107 108 0
-105 106 -107 -108 0
-105 -106 107 -108 0
-105 -106 -107 108 0
4 29 102 104 0
4 29 -102 -104 0
4 -29 102 -104 0
4 -29 -102 104 0
-4 29 102 -104 0
-4 29 -102 104 0
-4 -29 102 104 0
-4 -29 -102 -104 0
51 103 105 109 0
51 103 -105 -109 0
51 -103 105 -109 0
51 -103 -105 109 0
-51 103 105 -109 0
-51 103 -105 109 0
-51 -103 105 109 0
-51 -103 -105 -109 0
78 106 110 -111 0
78 106 -110 111 0
78 -106 110 111 0
78 -106 -110 -111 0
-78 106 110 111 0
-78 106 -110 -111 0
-78 -106 110 -111 0
-78 -106 -110 111 0
33 107 109 110 0
33 107 -109 -110 0
33 -107 109 -110 0
33 -107 -109 110 0
-33 107 109 -110 0
-33 107 -109 110 0
-33 -107 109 110 0
-33 -107 -109 -110 0
36 74 95 108 0
36 74 -95 -108 0
36 -74 95 -108 0
36 -74 -95 108 0
-36 74 95 -108 0
-36 74 -95 108 0
-36 -74 95 108 0
-36 -74 -95 -108 0
24 43 111 -112 0
24 43 -111 112 0
24 -43 111 112 0
24 -43 -111 -112 0
-24 43 111 112 0
-24 43 -111 -112 0
-24 -43 111 -112 0
-24 -43 -111 112 0
70 90 96 -112 0
70 90 -96 112 0
70 -90 96 112 0
70 -90 -96 -112 0
-70 90 96 112 0
-70 90 -96 -112 0
-70 -90 96 -112 0
-70 -90 -96 112 0
